NAME : portcgen-17-9
COMMENT : portcgen N=17, seed=9
TYPE : TSP
DIMENSION : 17
EDGE_WEIGHT_TYPE : EUC_2D
NODE_COORD_SECTION
1 -7525 290537
2 384184 150147
3 -276618 195001
4 73609 -91473
5 -48186 -138604
6 87616 -56138
7 -198347 166090
8 -138586 -45561
9 174685 6626
10 -137939 100807
11 53847 242396
12 -67200 352962
13 353648 -97684
14 -43974 31436
15 558803 25976
16 -270002 230954
17 -113428 640820
